NAME : 10_3_3_2_(43).dat
COMMENT : Henke, Speranza, Wäscher, 2015
TYPE : MCVRP
DIMENSION : 11
EDGE_WEIGHT_TYPE : DISTANCE_MATRIX
CAPACITY : 1000
VEHICLES : 2
PRODUCT TYPES : 3
COMPARTMENTS : 3
NODE_COORD_SECTION
1 50 50
2 50.2 68.61
3 83.44 80.17
4 14.51 63.52
5 4.51 65.82
6 9.54 66.92
7 93.69 31.7
8 15.33 71.14
9 91.22 53.89
10 34.12 20.25
11 55.21 78.88
DEMAND_SECTION
1 0 0 0
2 110 76 0
3 171 0 19
4 0 37 30
5 78 70 0
6 16 41 0
7 78 0 67
8 0 63 44
9 164 0 54
10 0 61 46
11 30 40 0
DEPOT_SECTION
1
EOF